
Gurobi 11.0.0 (linux64) logging started Wed Nov 29 20:44:00 2023

Set parameter LogFile to value "wlp05-p-Location-Of-Facilities-GUROBI.txt"
Gurobi Optimizer version 11.0.0 build v11.0.0rc2 (linux64 - "Ubuntu 22.04.3 LTS")

CPU model: AMD Ryzen 7 5800H with Radeon Graphics, instruction set [SSE2|AVX|AVX2]
Thread count: 8 physical cores, 16 logical processors, using up to 16 threads

Optimize a model with 2083 rows, 890400 columns and 1780200 nonzeros
Model fingerprint: 0xc2f8c403
Variable types: 889800 continuous, 600 integer (0 binary)
Coefficient statistics:
  Matrix range     [1e+00, 1e+02]
  Objective range  [1e+00, 1e+03]
  Bounds range     [1e+00, 1e+00]
  RHS range        [1e+00, 1e+00]
Found heuristic solution: objective 445525.00000
Presolve time: 1.53s
Presolved: 2083 rows, 890400 columns, 1780200 nonzeros
Variable types: 889800 continuous, 600 integer (600 binary)
Deterministic concurrent LP optimizer: primal simplex, dual simplex, and barrier
Showing barrier log only...

Root barrier log...

Ordering time: 0.04s

Barrier statistics:
 AA' NZ     : 8.898e+05
 Factor NZ  : 1.261e+06 (roughly 400 MB of memory)
 Factor Ops : 9.080e+08 (less than 1 second per iteration)
 Threads    : 6

                  Objective                Residual
Iter       Primal          Dual         Primal    Dual     Compl     Time
   0   4.55640251e+06 -6.61265125e+05  1.78e+02 0.00e+00  7.23e+00     3s
   1   1.19852152e+06 -6.14695888e+04  4.41e+01 5.68e-14  1.74e+00     3s
   2   3.01619652e+05  2.80913772e+04  3.01e+00 7.11e-14  2.10e-01     3s
   3   2.33708754e+05  1.15326617e+05  1.92e-01 3.18e-01  6.86e-02     4s
   4   2.19851730e+05  1.38040232e+05  9.19e-02 2.79e-01  4.68e-02     4s
   5   2.13215468e+05  1.46977626e+05  7.53e-02 2.17e-01  3.78e-02     4s
   6   2.09287096e+05  1.52370632e+05  6.52e-02 1.72e-01  3.24e-02     4s
   7   2.01587544e+05  1.52884206e+05  4.88e-02 9.28e-02  2.77e-02     4s
   8   1.91950097e+05  1.54814249e+05  3.14e-02 9.77e-02  2.11e-02     4s
   9   1.86030337e+05  1.56275510e+05  2.33e-02 8.07e-02  1.69e-02     4s
  10   1.79995154e+05  1.58933716e+05  1.64e-02 6.14e-02  1.20e-02     4s
  11   1.74884889e+05  1.60097517e+05  1.14e-02 4.64e-02  8.40e-03     4s
  12   1.71140614e+05  1.60888947e+05  7.94e-03 3.00e-02  5.82e-03     5s
  13   1.67542569e+05  1.61198170e+05  4.73e-03 2.03e-02  3.61e-03     5s
  14   1.65053960e+05  1.61532398e+05  2.57e-03 1.20e-02  2.00e-03     5s
  15   1.63381784e+05  1.61669883e+05  1.16e-03 8.04e-03  9.77e-04     5s
  16   1.62557781e+05  1.61819821e+05  4.98e-04 3.24e-03  4.21e-04     5s
  17   1.62257850e+05  1.61866289e+05  2.62e-04 1.64e-03  2.23e-04     5s
  18   1.62065847e+05  1.61889356e+05  1.16e-04 7.85e-04  1.01e-04     5s
  19   1.61975619e+05  1.61905129e+05  4.75e-05 2.08e-04  4.00e-05     5s
  20   1.61935380e+05  1.61908843e+05  1.76e-05 7.40e-05  1.51e-05     5s
  21   1.61923744e+05  1.61910111e+05  8.98e-06 2.92e-05  7.72e-06     5s
  22   1.61913516e+05  1.61910678e+05  1.77e-06 9.28e-06  1.61e-06     6s
  23   1.61911128e+05  1.61910922e+05  1.26e-07 6.89e-07  1.17e-07     6s
  24   1.61910943e+05  1.61910939e+05  5.04e-10 9.75e-08  2.23e-09     6s
  25   1.61910942e+05  1.61910942e+05  7.54e-11 4.37e-10  9.46e-11     6s

Barrier solved model in 25 iterations and 5.86 seconds (8.12 work units)
Optimal objective 1.61910942e+05

Concurrent spin time: 0.95s (can be avoided by choosing Method=3)

Solved with primal simplex

Root simplex log...

Iteration    Objective       Primal Inf.    Dual Inf.      Time
   94330    1.6191094e+05   0.000000e+00   0.000000e+00      7s

Root relaxation: objective 1.619109e+05, 94330 iterations, 4.89 seconds (3.22 work units)

    Nodes    |    Current Node    |     Objective Bounds      |     Work
 Expl Unexpl |  Obj  Depth IntInf | Incumbent    BestBd   Gap | It/Node Time

     0     0 161910.942    0   28 445525.000 161910.942  63.7%     -    6s
H    0     0                    173262.59376 161910.942  6.55%     -    7s
H    0     0                    170785.03173 161910.942  5.20%     -    7s
H    0     0                    169595.32595 161910.942  4.53%     -    8s
     0     0 161945.632    0   19 169595.326 161945.632  4.51%     -   10s
H    0     0                    167895.91405 161947.619  3.54%     -   12s
H    0     0                    167791.97711 161947.619  3.48%     -   12s
     0     0 161947.619    0   18 167791.977 161947.619  3.48%     -   12s
     0     0 161949.771    0   16 167791.977 161949.771  3.48%     -   13s
H    0     0                    166752.04064 161950.375  2.88%     -   14s
H    0     0                    166606.11986 161950.375  2.79%     -   14s
     0     0 161950.375    0   16 166606.120 161950.375  2.79%     -   14s
     0     0 161950.375    0   16 166606.120 161950.375  2.79%     -   14s
     0     0 161951.174    0   13 166606.120 161951.174  2.79%     -   16s
H    0     0                    166193.18100 161951.654  2.55%     -   16s
H    0     0                    166091.16871 161951.654  2.49%     -   16s
H    0     0                    162616.06557 161951.654  0.41%     -   17s
     0     0 161951.654    0   14 162616.066 161951.654  0.41%     -   17s
     0     0 161951.654    0   14 162616.066 161951.654  0.41%     -   17s
     0     0 161952.008    0   11 162616.066 161952.008  0.41%     -   18s
     0     0 161952.217    0   11 162616.066 161952.217  0.41%     -   19s
     0     0 161952.217    0   11 162616.066 161952.217  0.41%     -   19s
     0     0 161952.396    0   10 162616.066 161952.396  0.41%     -   21s
     0     0 161952.419    0   10 162616.066 161952.419  0.41%     -   22s
     0     0 161952.507    0   10 162616.066 161952.507  0.41%     -   23s
     0     0 161952.779    0   11 162616.066 161952.779  0.41%     -   23s
     0     0 161952.780    0   11 162616.066 161952.780  0.41%     -   24s
     0     0 161953.018    0   11 162616.066 161953.018  0.41%     -   25s
     0     0 161954.106    0   11 162616.066 161954.106  0.41%     -   27s
     0     2 161954.106    0   11 162616.066 161954.106  0.41%     -   30s
     7    16 161960.330    3   10 162616.066 161955.198  0.41%  65.4   35s
    31    40 161962.103    6    7 162616.066 161955.512  0.41%  58.2   41s
    57    75 161963.088   10    4 162616.066 161955.512  0.41%  53.5   48s
H   71    75                    162231.41061 161955.512  0.17%  52.0   48s
    74   107 161963.507   12    4 162231.411 161955.512  0.17%  52.6   57s
H  100   107                    162222.43577 161955.512  0.16%  50.2   57s
   106   191 161964.728   15    3 162222.436 161955.512  0.16%  50.3   73s
H  110   191                    162031.84477 161955.512  0.05%  48.9   74s
H  112   191                    162027.47292 161955.512  0.04%  48.7   74s
   190   401 161964.596   21    2 162027.473 161955.512  0.04%  38.8  105s
H  405   401                    162022.52721 161955.512  0.04%  25.8  110s
   406   402 161963.741   10   11 162022.527 161955.512  0.04%  25.7  118s
   408   403 161965.344   26   28 162022.527 161955.512  0.04%  25.6  127s
   409   404 161966.865   40   20 162022.527 161955.512  0.04%  25.5  134s
   410   405 161992.825   40   15 162022.527 161955.512  0.04%  25.5  135s
   415   408 161960.521    4   11 162022.527 161955.512  0.04%  25.1  144s
   416   409 162008.362   42   10 162022.527 161955.512  0.04%  25.1  145s
   418   410 161964.051   23   10 162022.527 161955.512  0.04%  25.0  153s
   420   411 161962.922   17   10 162022.527 161955.512  0.04%  24.8  155s
   421   412 161965.317   29   11 162022.527 161955.970  0.04%  24.8  162s
   424   414 162004.109   30   10 162022.527 161957.684  0.04%  24.6  170s
   426   415 161966.621   47    9 162022.527 161958.259  0.04%  24.5  178s
   427   416 161965.226   27   10 162022.527 161958.652  0.04%  24.4  180s
   428   417 161963.942    5    9 162022.527 161958.761  0.04%  24.4  185s
   430   418 161969.588   54    8 162022.527 161959.607  0.04%  24.3  192s
   432   419 161966.834   38    8 162022.527 161959.858  0.04%  24.2  198s
   433   420 161962.368    6    8 162022.527 161959.976  0.04%  24.1  200s
   435   421 161966.032   22   11 162022.527 161960.004  0.04%  24.0  207s
   436   422 161961.220    5   11 162022.527 161960.004  0.04%  23.9  213s
   437   426 161960.004   13    9 162022.527 161960.004  0.04%   121  216s
   443   436 161960.626   15    8 162022.527 161960.004  0.04%   120  225s
   451   441 161961.482   16    8 162022.527 161960.004  0.04%   119  232s
   459   446 161974.468   16    7 162022.527 161960.004  0.04%   119  239s
   467   452 161961.808   17    8 162022.527 161960.004  0.04%   118  244s
   475   457 161970.251   17    7 162022.527 161960.004  0.04%   118  248s
   483   465 161961.880   18    7 162022.527 161960.004  0.04%   118  252s
   494   471 161962.232   19    7 162022.527 161960.004  0.04%   117  255s
   514   486 161962.410   20    5 162022.527 161960.004  0.04%   117  261s
   525   515 161964.301   20    5 162022.527 161960.004  0.04%   116  268s
   559   560 161973.658   23    6 162022.527 161960.004  0.04%   113  287s
   616   587 161963.995   27    3 162022.527 161960.004  0.04%   110  300s

Cutting planes:
  Gomory: 1
  Implied bound: 105
  MIR: 97
  Flow cover: 25
  Relax-and-lift: 14

Explored 662 nodes (177402 simplex iterations) in 300.09 seconds (208.96 work units)
Thread count was 16 (of 16 available processors)

Solution count 10: 162023 162222 162616 ... 445525

Time limit reached
Best objective 1.620225272081e+05, best bound 1.619600035511e+05, gap 0.0386%
